Optimal - objective value 20480.00000000
      0 F                  20480                       1
      2 m_2_1                  1                       0
      3 m_1_3                  1                       0
      5 m_1_5                  1                       0
      7 m_1_6                  1                       0
      9 m_1_7                  1                       0
     11 m_1_8                  1                       0
     13 m_1_4                  1                       0
     15 m_1_10                 1                       0
     17 m_1_9                  1                       0
     19 m_2_3                  1                       0
     21 m_2_5                  1                       0
     23 m_2_6                  1                       0
     25 m_2_7                  1                       0
     27 m_2_8                  1                       0
     29 m_2_4                  1                       0
     31 m_2_10                 1                       0
     33 m_2_9                  1                       0
     35 m_3_5                  1                       0
     38 m_6_3                  1                       0
     40 m_7_3                  1                       0
     42 m_8_3                  1                       0
     44 m_4_3                  1                       0
     45 m_3_10                 1                       0
     48 m_9_3                  1                       0
     50 m_6_5                  1                       0
     52 m_7_5                  1                       0
     54 m_8_5                  1                       0
     56 m_4_5                  1                       0
     57 m_5_10                 1                       0
     60 m_9_5                  1                       0
     62 m_7_6                  1                       0
     64 m_8_6                  1                       0
     66 m_4_6                  1                       0
     67 m_6_10                 1                       0
     70 m_9_6                  1                       0
     71 m_7_8                  1                       0
     74 m_4_7                  1                       0
     75 m_7_10                 1                       0
     77 m_7_9                  1                       0
     80 m_4_8                  1                       0
     81 m_8_10                 1                       0
     83 m_8_9                  1                       0
     85 m_4_10                 1                       0
     87 m_4_9                  1                       0
     90 m_9_10                 1                       0
     91 s_1                    2                       0
     92 m_1_1                  1                       0
     93 s_2                    1                       0
     94 m_2_2                  1                       0
     95 s_3                    8                       0
     96 m_3_3                  1                       0
     97 s_5                    9                       0
     98 m_5_5                  1                       0
     99 s_6                    7                       0
    100 m_6_6                  1                       0
    101 s_7                    4                       0
    102 m_7_7                  1                       0
    103 s_8                    5                       0
    104 m_8_8                  1                       0
    105 s_4                    3                       0
    106 m_4_4                  1                       0
    107 s_10                  10                       0
    108 m_10_10                1                       0
    109 s_9                    6                       0
    110 m_9_9                  1                       0
    111 y_1_1                  1                       0
    112 y_2_1                  1                       0
    122 y_2_2                  1                       0
    131 y_1_3                  1                       0
    133 y_3_3                  1                       0
    141 y_1_5                  1                       0
    144 y_5_5                  1                       0
    151 y_1_6                  1                       0
    155 y_6_6                  1                       0
    161 y_1_7                  1                       0
    162 y_2_7                  1                       0
    166 y_7_7                  1                       0
    171 y_1_8                  1                       0
    172 y_2_8                  1                       0
    177 y_8_8                  1                       0
    181 y_1_4                  1                       0
    182 y_2_4                  1                       0
    188 y_4_4                  1                       0
    194 y_5_10                 1                       0
    199 y_10_10                1                       0
    201 y_1_9                  1                       0
    207 y_8_9                  1                       0
    210 y_9_9                  1                       0
